cif2pos.py                              
   1.00000000000000     
     3.4986952365807635    0.0000000076985942    0.0000000283138660
     0.0000000156162652    6.2875072488378132    0.0000006601692315
     0.0000000974437574    0.0000013185106623   13.5639825986226974
   W    Te
     4     8
Direct
  0.9999999944400814  0.6025543202488295  0.4997186612987913
  0.5000000007133170  0.3974436972094016  0.9997154298656670
  0.9999999999283722  0.0417278979711592  0.0154668258735242
  0.5000000044308185  0.9582745696248821  0.5154689570552480
  0.9999999946142040  0.8575389057262980  0.6617929003850004
  0.4999999925443476  0.1424613445210633  0.1617925040213042
  0.9999999983447908  0.6458313486838102  0.1136716566583259
  0.4999999976336302  0.3541682576445343  0.6136726927394970
  0.0000000084153217  0.2998962297353599  0.8534035157262001
  0.5000000029138357  0.7001034009408523  0.3534032284614200
  0.0000000022152193  0.2068941924847445  0.4012372611914083
  0.5000000038060546  0.7931058352090722  0.9012363667236234
 
  0.00000000E+00  0.00000000E+00  0.00000000E+00
  0.00000000E+00  0.00000000E+00  0.00000000E+00
  0.00000000E+00  0.00000000E+00  0.00000000E+00
  0.00000000E+00  0.00000000E+00  0.00000000E+00
  0.00000000E+00  0.00000000E+00  0.00000000E+00
  0.00000000E+00  0.00000000E+00  0.00000000E+00
  0.00000000E+00  0.00000000E+00  0.00000000E+00
  0.00000000E+00  0.00000000E+00  0.00000000E+00
  0.00000000E+00  0.00000000E+00  0.00000000E+00
  0.00000000E+00  0.00000000E+00  0.00000000E+00
  0.00000000E+00  0.00000000E+00  0.00000000E+00
  0.00000000E+00  0.00000000E+00  0.00000000E+00
