cif2pos.py                              
   1.00000000000000     
     3.4986952365807635    0.0000000076985942    0.0000000283138660
     0.0000000156318192    6.2937697062569740    0.0000006608267706
     0.0000000974437574    0.0000013185106623   13.5639825986226974
   W    Te
     4     8
Direct
  0.9999999945869787  0.6025009419378173  0.4997274687058691
  0.5000000011418799  0.3975002842462413  0.9997256725301976
  0.0000000025541897  0.0416559491420590  0.0154409607045020
  0.5000000023242275  0.9583435443220887  0.5154423659108140
  0.9999999967146812  0.8575201462643089  0.6617817161314049
  0.4999999936775296  0.1424798681182950  0.1617820856894808
  0.9999999977796784  0.6458814201483551  0.1136230922929092
  0.4999999957660788  0.3541186714875861  0.6136235091344739
  0.0000000087887191  0.2998299339657430  0.8534272721622100
  0.5000000017513211  0.7001690301694800  0.3534273699936061
  0.0000000019205360  0.2069631143896802  0.4012898499976849
  0.5000000029941726  0.7930370958083522  0.9012886367468572
 
  0.00000000E+00  0.00000000E+00  0.00000000E+00
  0.00000000E+00  0.00000000E+00  0.00000000E+00
  0.00000000E+00  0.00000000E+00  0.00000000E+00
  0.00000000E+00  0.00000000E+00  0.00000000E+00
  0.00000000E+00  0.00000000E+00  0.00000000E+00
  0.00000000E+00  0.00000000E+00  0.00000000E+00
  0.00000000E+00  0.00000000E+00  0.00000000E+00
  0.00000000E+00  0.00000000E+00  0.00000000E+00
  0.00000000E+00  0.00000000E+00  0.00000000E+00
  0.00000000E+00  0.00000000E+00  0.00000000E+00
  0.00000000E+00  0.00000000E+00  0.00000000E+00
  0.00000000E+00  0.00000000E+00  0.00000000E+00
