cif2pos.py                              
   1.0000000000000000     
     3.4986952365807635    0.0000000076985942    0.0000000283138660
     0.0000000155540490    6.2624574191611684    0.0000006575390752
     0.0000000974437574    0.0000013185106623   13.5639825986226974
   W    Te
     4     8
Direct
  0.9999999982148225  0.6024750399309899  0.4996617869428313
  0.5000000012817590  0.3975250348699584  0.9996609409937108
  0.0000000000054823  0.0417000308731282  0.0154988279720402
  0.5000000001661130  0.9582999903170211  0.5154997690768850
  0.9999999974484182  0.8576898570786786  0.6620528642307718
  0.4999999967419954  0.1423100550918836  0.1620525870826056
  0.9999999993597163  0.6457759586817661  0.1138746051902816
  0.4999999983611797  0.3542241420738175  0.6138750386420520
  0.0000000060793629  0.3001077638734085  0.8531619235834174
  0.5000000004508572  0.6998921411260368  0.3531618513631258
  0.9999999999139935  0.2067796073106229  0.4010399405673203
  0.5000000019762927  0.7932203787726954  0.9010398643549683

  0.00000000E+00  0.00000000E+00  0.00000000E+00
  0.00000000E+00  0.00000000E+00  0.00000000E+00
  0.00000000E+00  0.00000000E+00  0.00000000E+00
  0.00000000E+00  0.00000000E+00  0.00000000E+00
  0.00000000E+00  0.00000000E+00  0.00000000E+00
  0.00000000E+00  0.00000000E+00  0.00000000E+00
  0.00000000E+00  0.00000000E+00  0.00000000E+00
  0.00000000E+00  0.00000000E+00  0.00000000E+00
  0.00000000E+00  0.00000000E+00  0.00000000E+00
  0.00000000E+00  0.00000000E+00  0.00000000E+00
  0.00000000E+00  0.00000000E+00  0.00000000E+00
  0.00000000E+00  0.00000000E+00  0.00000000E+00
