cif2pos.py                              
   1.00000000000000     
     3.4986952365807635    0.0000000076985942    0.0000000283138660
     0.0000000155851571    6.2749823339994908    0.0000006588541534
     0.0000000974437574    0.0000013185106623   13.5639825986226974
   W    Te
     4     8
Direct
  0.9999999976527876  0.6024990843869368  0.4996503644099988
  0.4999999969793283  0.3975007944402580  0.9996500834934223
  0.0000000054426926  0.0416796576340360  0.0155297287057120
  0.5000000000148709  0.9583197627099436  0.5155303152421767
  0.9999999951742427  0.8575991682052471  0.6619144916085891
  0.4999999940842680  0.1424017112727274  0.1619145786324630
  0.9999999985045142  0.6457836907695813  0.1137895015779778
  0.4999999963918972  0.3542157340852648  0.6137890964984374
  0.0000000071322431  0.2999890881796852  0.8532853417572429
  0.5000000039891019  0.7000117761513911  0.3532848728406499
  0.0000000020944715  0.2068350540086901  0.4011207075350671
  0.5000000025395748  0.7931644781562458  0.9011209176982727
 
  0.00000000E+00  0.00000000E+00  0.00000000E+00
  0.00000000E+00  0.00000000E+00  0.00000000E+00
  0.00000000E+00  0.00000000E+00  0.00000000E+00
  0.00000000E+00  0.00000000E+00  0.00000000E+00
  0.00000000E+00  0.00000000E+00  0.00000000E+00
  0.00000000E+00  0.00000000E+00  0.00000000E+00
  0.00000000E+00  0.00000000E+00  0.00000000E+00
  0.00000000E+00  0.00000000E+00  0.00000000E+00
  0.00000000E+00  0.00000000E+00  0.00000000E+00
  0.00000000E+00  0.00000000E+00  0.00000000E+00
  0.00000000E+00  0.00000000E+00  0.00000000E+00
  0.00000000E+00  0.00000000E+00  0.00000000E+00
