cif2pos.py                              
   1.00000000000000     
     3.4986952365807635    0.0000000076985942    0.0000000283138660
     0.0000000156007111    6.2812447914186516    0.0000006595116924
     0.0000000974437574    0.0000013185106623   13.5639825986226974
   W    Te
     4     8
Direct
  0.9999999971505390  0.6025060671935250  0.4996850161250442
  0.4999999982098391  0.3974942428300403  0.9996843332846825
  0.0000000031383271  0.0417133314828101  0.0154839551079880
  0.5000000005060915  0.9582866682039575  0.5154851465377993
  0.9999999977647850  0.8576366342469542  0.6619587539986322
  0.4999999954178538  0.1423635309549414  0.1619582950998481
  0.9999999995098513  0.6457982142113581  0.1137988769745227
  0.4999999981614572  0.3542015068330914  0.6137995913998938
  0.0000000061693290  0.3000318681485584  0.8532497277327931
  0.5000000006347769  0.6999679477959443  0.3532493465639118
  0.0000000013401054  0.2068220836782479  0.4011134237669040
  0.5000000019970376  0.7931779044205789  0.9011135334079902
 
  0.00000000E+00  0.00000000E+00  0.00000000E+00
  0.00000000E+00  0.00000000E+00  0.00000000E+00
  0.00000000E+00  0.00000000E+00  0.00000000E+00
  0.00000000E+00  0.00000000E+00  0.00000000E+00
  0.00000000E+00  0.00000000E+00  0.00000000E+00
  0.00000000E+00  0.00000000E+00  0.00000000E+00
  0.00000000E+00  0.00000000E+00  0.00000000E+00
  0.00000000E+00  0.00000000E+00  0.00000000E+00
  0.00000000E+00  0.00000000E+00  0.00000000E+00
  0.00000000E+00  0.00000000E+00  0.00000000E+00
  0.00000000E+00  0.00000000E+00  0.00000000E+00
  0.00000000E+00  0.00000000E+00  0.00000000E+00
