cif2pos.py                              
   1.0000000000000000     
     3.5126900175270865    0.0000000077293886    0.0000000284271215
     0.0000000155540490    6.2624574191611684    0.0000006575390752
     0.0000000974437574    0.0000013185106623   13.5639825986226974
   W    Te
     4     8
Direct
 -0.0000000008305722  0.6026022378961470  0.4995350509008684
  0.4999999971490688  0.3973976004233654  0.9995369006163944
  0.0000000036769756  0.0417883989090166  0.0156303462808713
  0.4999999998443433  0.9582112706237098  0.5156289914418436
  0.9999999971255957  0.8577350799855521  0.6618611209555120
  0.4999999952086782  0.1422653510194966  0.1618611034932130
  0.9999999968965682  0.6455243913342639  0.1137532774941313
  0.4999999967027605  0.3544754015467416  0.6137527515059592
  0.0000000069528131  0.3001639481775614  0.8533525893886076
  0.5000000026602285  0.6998364308817830  0.3533524926914814
  0.0000000019422373  0.2065476978302277  0.4011574865152794
  0.5000000026712959  0.7934521913721418  0.9011578887158482

  0.00000000E+00  0.00000000E+00  0.00000000E+00
  0.00000000E+00  0.00000000E+00  0.00000000E+00
  0.00000000E+00  0.00000000E+00  0.00000000E+00
  0.00000000E+00  0.00000000E+00  0.00000000E+00
  0.00000000E+00  0.00000000E+00  0.00000000E+00
  0.00000000E+00  0.00000000E+00  0.00000000E+00
  0.00000000E+00  0.00000000E+00  0.00000000E+00
  0.00000000E+00  0.00000000E+00  0.00000000E+00
  0.00000000E+00  0.00000000E+00  0.00000000E+00
  0.00000000E+00  0.00000000E+00  0.00000000E+00
  0.00000000E+00  0.00000000E+00  0.00000000E+00
  0.00000000E+00  0.00000000E+00  0.00000000E+00
