cif2pos.py                              
   1.00000000000000     
     3.4986952365807635    0.0000000076985942    0.0000000283138660
     0.0000000155696030    6.2687198765803291    0.0000006581966143
     0.0000000974437574    0.0000013185106623   13.5639825986226974
   W    Te
     4     8
Direct
  0.9999999976745380  0.6024797088560199  0.4996699080014715
  0.5000000031653656  0.3975200280547279  0.9996694631699039
  0.9999999991436683  0.0417050454693557  0.0154911651721257
  0.5000000000173414  0.9582951883623347  0.5154914438702599
  0.9999999981024850  0.8576844008112650  0.6620402203690294
  0.4999999976197684  0.1423156144339725  0.1620401815028008
  0.9999999987130629  0.6457824960380794  0.1138620676732190
  0.4999999986194776  0.3542176777395307  0.6138621164745933
  0.0000000045440961  0.3000987502497716  0.8531741197255643
  0.5000000001787390  0.6999011058047026  0.3531740892615491
  0.9999999996165216  0.2067871838769500  0.4010526853579282
  0.5000000026049291  0.7932128003032972  0.9010525394215648
 
  0.00000000E+00  0.00000000E+00  0.00000000E+00
  0.00000000E+00  0.00000000E+00  0.00000000E+00
  0.00000000E+00  0.00000000E+00  0.00000000E+00
  0.00000000E+00  0.00000000E+00  0.00000000E+00
  0.00000000E+00  0.00000000E+00  0.00000000E+00
  0.00000000E+00  0.00000000E+00  0.00000000E+00
  0.00000000E+00  0.00000000E+00  0.00000000E+00
  0.00000000E+00  0.00000000E+00  0.00000000E+00
  0.00000000E+00  0.00000000E+00  0.00000000E+00
  0.00000000E+00  0.00000000E+00  0.00000000E+00
  0.00000000E+00  0.00000000E+00  0.00000000E+00
  0.00000000E+00  0.00000000E+00  0.00000000E+00
