cif2pos.py                              
   1.0000000000000000     
     3.5021939318173438    0.0000000077062928    0.0000000283421799
     0.0000000155540490    6.2624574191611684    0.0000006575390752
     0.0000000974437574    0.0000013185106623   13.5639825986226974
   W    Te
     4     8
Direct
  0.9999999988859257  0.6024900365135412  0.4996537791517581
  0.5000000024931694  0.3975102252350070  0.9996538716200293
  0.9999999996651590  0.0417153059076443  0.0155064693188472
  0.4999999991464146  0.9582846815947030  0.5155066080143111
  0.9999999980286783  0.8576984086512061  0.6620385601322477
  0.4999999982985379  0.1423015588717166  0.1620385063912803
  0.9999999988466609  0.6457640510422779  0.1138659362074827
  0.4999999988179727  0.3542359929764572  0.6138660193402712
  0.0000000040823943  0.3001179647260396  0.8531764747270837
  0.4999999998374980  0.6998819872278200  0.3531765809178463
  0.9999999995203240  0.2067662445508013  0.4010486126986731
  0.5000000023772579  0.7932335427027930  0.9010485814801794

  0.00000000E+00  0.00000000E+00  0.00000000E+00
  0.00000000E+00  0.00000000E+00  0.00000000E+00
  0.00000000E+00  0.00000000E+00  0.00000000E+00
  0.00000000E+00  0.00000000E+00  0.00000000E+00
  0.00000000E+00  0.00000000E+00  0.00000000E+00
  0.00000000E+00  0.00000000E+00  0.00000000E+00
  0.00000000E+00  0.00000000E+00  0.00000000E+00
  0.00000000E+00  0.00000000E+00  0.00000000E+00
  0.00000000E+00  0.00000000E+00  0.00000000E+00
  0.00000000E+00  0.00000000E+00  0.00000000E+00
  0.00000000E+00  0.00000000E+00  0.00000000E+00
  0.00000000E+00  0.00000000E+00  0.00000000E+00
