cif2pos.py                              
   1.0000000000000000     
 3.5021939318173438  0.0000000077062928  0.0000000283421799
 0.0000000155540490  6.2624574191611684  0.0000006575390752
 0.0000000974437574  0.0000013185106623 13.5639825986226974
   W    Te
     4     8
Direct
 -0.0000000008976493  0.6024804401578193  0.4996869989107337
  0.5000000036439404  0.3975195118766334 -0.0003129884178594
 -0.0000000017447440  0.0417215977153062  0.0154673799091674
  0.4999999987985255  0.9582784546200073  0.5154674516538239
 -0.0000000009935840  0.8577079672733846  0.6620668891447742
  0.4999999983761286  0.1422921327491735  0.1620668386425034
 -0.0000000005685259  0.6457903138989254  0.1138706577067522
  0.4999999990651909  0.3542097842292100  0.6138706849508305
  0.0000000034433858  0.3001254107565319  0.8531520626340958
  0.4999999992216410  0.6998744832660881  0.3531520868684680
 -0.0000000003596977  0.2067798594695676  0.4010459867432403
  0.5000000020153884  0.7932200439873524  0.9010459512534726

  0.00000000E+00  0.00000000E+00  0.00000000E+00
  0.00000000E+00  0.00000000E+00  0.00000000E+00
  0.00000000E+00  0.00000000E+00  0.00000000E+00
  0.00000000E+00  0.00000000E+00  0.00000000E+00
  0.00000000E+00  0.00000000E+00  0.00000000E+00
  0.00000000E+00  0.00000000E+00  0.00000000E+00
  0.00000000E+00  0.00000000E+00  0.00000000E+00
  0.00000000E+00  0.00000000E+00  0.00000000E+00
  0.00000000E+00  0.00000000E+00  0.00000000E+00
  0.00000000E+00  0.00000000E+00  0.00000000E+00
  0.00000000E+00  0.00000000E+00  0.00000000E+00
  0.00000000E+00  0.00000000E+00  0.00000000E+00
