cif2pos.py                              
   1.0000000000000000     
     3.5091913222905053    0.0000000077216900    0.0000000283988076
     0.0000000155540490    6.2624574191611684    0.0000006575390752
     0.0000000974437574    0.0000013185106623   13.5639825986226974
   W    Te
     4     8
Direct
  0.0000000006865024  0.6025993964829032  0.4995511149092080
  0.4999999965965659  0.3973997235187208  0.9995513587569377
  0.0000000038124511  0.0417963822321412  0.0156176326987377
  0.4999999979276030  0.9582040152122677  0.5156175819169762
  0.9999999966559266  0.8577272338805974  0.6619072308364230
  0.4999999959391120  0.1422731558291661  0.1619070594609228
  0.9999999988022142  0.6456453543703887  0.1138079356996779
  0.4999999969206299  0.3543545360037768  0.6138079405311698
  0.0000000055329839  0.3001576287420286  0.8533039624337454
  0.5000000020077549  0.6998424582748449  0.3533035302944844
  0.0000000016008132  0.2066627346836704  0.4011021810349632
  0.5000000035174359  0.7933373807695013  0.9011024714267636

  0.00000000E+00  0.00000000E+00  0.00000000E+00
  0.00000000E+00  0.00000000E+00  0.00000000E+00
  0.00000000E+00  0.00000000E+00  0.00000000E+00
  0.00000000E+00  0.00000000E+00  0.00000000E+00
  0.00000000E+00  0.00000000E+00  0.00000000E+00
  0.00000000E+00  0.00000000E+00  0.00000000E+00
  0.00000000E+00  0.00000000E+00  0.00000000E+00
  0.00000000E+00  0.00000000E+00  0.00000000E+00
  0.00000000E+00  0.00000000E+00  0.00000000E+00
  0.00000000E+00  0.00000000E+00  0.00000000E+00
  0.00000000E+00  0.00000000E+00  0.00000000E+00
  0.00000000E+00  0.00000000E+00  0.00000000E+00
