cif2pos.py                              
   1.0000000000000000     
     3.5056926270539250    0.0000000077139914    0.0000000283704937
     0.0000000155540490    6.2624574191611684    0.0000006575390752
     0.0000000974437574    0.0000013185106623   13.5639825986226974
   W    Te
     4     8
Direct
  0.9999999987660547  0.6025059960949740  0.4996464101115006
  0.5000000037023690  0.3974942177868970  0.9996464506216060
  0.9999999994858454  0.0417314178898625  0.0155134338197821
  0.4999999995077963  0.9582686240269267  0.5155135316348525
  0.9999999983580784  0.8577066461210467  0.6620245492482260
  0.4999999974743964  0.1422933319083331  0.1620244847891994
  0.9999999985269339  0.6457517958452123  0.1138572089608069
  0.4999999987473677  0.3542482393043143  0.6138572910800563
  0.0000000041082836  0.3001274683294973  0.8531910413049553
  0.4999999996431766  0.6998725144066348  0.3531911364740588
  0.9999999996572011  0.2067524985943013  0.4010572454901230
  0.5000000020224898  0.7932472496920072  0.9010572164648432

  0.00000000E+00  0.00000000E+00  0.00000000E+00
  0.00000000E+00  0.00000000E+00  0.00000000E+00
  0.00000000E+00  0.00000000E+00  0.00000000E+00
  0.00000000E+00  0.00000000E+00  0.00000000E+00
  0.00000000E+00  0.00000000E+00  0.00000000E+00
  0.00000000E+00  0.00000000E+00  0.00000000E+00
  0.00000000E+00  0.00000000E+00  0.00000000E+00
  0.00000000E+00  0.00000000E+00  0.00000000E+00
  0.00000000E+00  0.00000000E+00  0.00000000E+00
  0.00000000E+00  0.00000000E+00  0.00000000E+00
  0.00000000E+00  0.00000000E+00  0.00000000E+00
  0.00000000E+00  0.00000000E+00  0.00000000E+00
