cif2pos.py                              
   1.0000000000000000     
     3.5161887127636668    0.0000000077370872    0.0000000284554353
     0.0000000155540490    6.2624574191611684    0.0000006575390752
     0.0000000974437574    0.0000013185106623   13.5639825986226974
   W    Te
     4     8
Direct
  0.9999999955282547  0.6026355516678492  0.4995181364060284
  0.5000000025612935  0.3973644046150486  0.9995174709130475
  0.0000000014428964  0.0418237787932147  0.0156468417273508
  0.5000000033963010  0.9581760138843962  0.5156474346870475
  0.9999999968889726  0.8577644642856989  0.6618198192674392
  0.4999999947739573  0.1422358175852397  0.1618198671390528
  0.9999999970888895  0.6454762740850101  0.1137200127327263
  0.4999999955621399  0.3545236006141168  0.6137199132660771
  0.0000000057954150  0.3001969112905171  0.8533948079144790
  0.5000000021048630  0.6998032847108183  0.3533948149647470
  0.0000000008768798  0.2064934374806816  0.4011904173140338
  0.5000000039801304  0.7935064609874161  0.9011904636679806

  0.00000000E+00  0.00000000E+00  0.00000000E+00
  0.00000000E+00  0.00000000E+00  0.00000000E+00
  0.00000000E+00  0.00000000E+00  0.00000000E+00
  0.00000000E+00  0.00000000E+00  0.00000000E+00
  0.00000000E+00  0.00000000E+00  0.00000000E+00
  0.00000000E+00  0.00000000E+00  0.00000000E+00
  0.00000000E+00  0.00000000E+00  0.00000000E+00
  0.00000000E+00  0.00000000E+00  0.00000000E+00
  0.00000000E+00  0.00000000E+00  0.00000000E+00
  0.00000000E+00  0.00000000E+00  0.00000000E+00
  0.00000000E+00  0.00000000E+00  0.00000000E+00
  0.00000000E+00  0.00000000E+00  0.00000000E+00
